(set-logic QF_BV)
(declare-fun _substvar_4034_ () (_ BitVec 1))
(declare-fun _substvar_4216_ () (_ BitVec 13))
(declare-fun _substvar_1389_ () (_ BitVec 29))
(declare-fun _substvar_4364_ () (_ BitVec 8))
(declare-fun _substvar_4032_ () (_ BitVec 16))
(declare-fun _substvar_4241_ () (_ BitVec 29))
(declare-fun _substvar_4348_ () (_ BitVec 1))
(declare-fun _substvar_4050_ () (_ BitVec 1))
(declare-fun _substvar_1395_ () (_ BitVec 23))
(declare-fun _substvar_1361_ () (_ BitVec 1))
(declare-fun _substvar_1350_ () (_ BitVec 203))
(declare-fun _substvar_4033_ () (_ BitVec 17))
(declare-fun _substvar_1929_ () (_ BitVec 29))
(declare-fun _substvar_1392_ () (_ BitVec 26))
(declare-fun _substvar_4261_ () (_ BitVec 1))
(declare-fun _substvar_4287_ () (_ BitVec 1))
(declare-fun _substvar_1390_ () (_ BitVec 28))
(declare-fun _substvar_1365_ () (_ BitVec 1))
(declare-fun _substvar_3989_ () (_ BitVec 6))
(declare-fun _substvar_1364_ () (_ BitVec 1))
(declare-fun _substvar_4299_ () (_ BitVec 1))
(declare-fun _substvar_1399_ () (_ BitVec 19))
(declare-fun _substvar_3998_ () (_ BitVec 1))
(declare-fun _substvar_1927_ () (_ BitVec 29))
(declare-fun _substvar_1366_ () (_ BitVec 1))
(declare-fun shift2 () (_ BitVec 203))
(define-fun bitsumhelper ((x (_ BitVec 29))) (_ BitVec 29) (bvand x (bvsub x (_ bv1 29))))
(assert (not (= (_ bv0 29) (bitsumhelper (bitsumhelper (bitsumhelper (bitsumhelper (bitsumhelper (bitsumhelper (bitsumhelper (bitsumhelper (bitsumhelper (bitsumhelper (bitsumhelper (bitsumhelper (bitsumhelper (bitsumhelper (concat _substvar_4261_ (concat ((_ extract 8 8) _substvar_1350_) (concat ((_ extract 15 15) _substvar_1350_) (concat ((_ extract 22 22) _substvar_1350_) (concat _substvar_4287_ (concat (_ bv0 1) (concat _substvar_4299_ (concat ((_ extract 50 50) _substvar_1350_) (concat ((_ extract 57 57) _substvar_1350_) (concat ((_ extract 64 64) _substvar_1350_) (concat ((_ extract 71 71) _substvar_1350_) (concat _substvar_1366_ (concat _substvar_1365_ (concat _substvar_1364_ (_ bv0 15))))))))))))))))))))))))))))))))
(assert (not (= (_ bv0 29) _substvar_1929_)))
(assert (not (= (_ bv0 29) _substvar_4241_)))
(assert true)
(assert (not (= (_ bv0 29) (bitsumhelper (bitsumhelper (bitsumhelper (bitsumhelper (bitsumhelper (bitsumhelper (bitsumhelper (bitsumhelper (bitsumhelper (bitsumhelper (bitsumhelper (bitsumhelper (bitsumhelper (bitsumhelper (concat ((_ extract 6 6) _substvar_1350_) (concat ((_ extract 13 13) _substvar_1350_) (concat ((_ extract 20 20) _substvar_1350_) (concat (_ bv0 1) (concat ((_ extract 34 34) _substvar_1350_) (concat ((_ extract 41 41) _substvar_1350_) (concat ((_ extract 48 48) _substvar_1350_) (concat ((_ extract 55 55) _substvar_1350_) (concat ((_ extract 62 62) _substvar_1350_) (concat ((_ extract 69 69) _substvar_1350_) (concat ((_ extract 76 76) _substvar_1350_) (concat ((_ extract 83 83) _substvar_1350_) (concat ((_ extract 90 90) _substvar_1350_) (concat ((_ extract 97 97) _substvar_1350_) (concat ((_ extract 104 104) _substvar_1350_) (concat ((_ extract 111 111) _substvar_1350_) (concat ((_ extract 118 118) _substvar_1350_) (concat (_ bv0 1) (concat ((_ extract 132 132) _substvar_1350_) (concat ((_ extract 139 139) _substvar_1350_) (concat ((_ extract 146 146) _substvar_1350_) _substvar_4364_))))))))))))))))))))))))))))))))))))))
(check-sat)
(exit)
